NAME : n40w120.005.470.tour
COMMENT : Length = 470
COMMENT : Found by LKH [Keld Helsgaun] Tue May  2 05:47:16 2017
TYPE : TOUR
DIMENSION : 41
TOUR_SECTION
1
6
39
29
22
25
13
15
12
4
14
28
3
33
35
27
30
18
19
37
9
38
21
20
5
34
17
7
26
23
24
10
8
2
31
40
16
41
32
36
11
-1
EOF
